TCS_Benchmarks/redos_fix/corpus1_output_distinct_4550_4549_16_0.txt
([^>]*)(\d+)
([^>]*)(id\s*=\s*"task_)(\d+)